NAME: random-81-26021
TYPE: TSP
COMMENT: size=81 seed=26021
DIMENSION: 164
EDGE_WEIGHT_TYPE: EUC_2D
NODE_COORD_SECTION
+0 947 195
-0 947 195
+1 169 753
-1 496 830
+2 658 202
-2 827 260
+3 898 229
-3 750 962
+4 306 909
-4 168 719
+5 2 659
-5 614 427
+6 114 576
-6 808 133
+7 8 520
-7 548 395
+8 389 562
-8 19 913
+9 292 875
-9 970 859
+10 391 910
-10 65 915
+11 594 168
-11 343 971
+12 962 812
-12 253 356
+13 879 833
-13 872 486
+14 231 137
-14 404 938
+15 429 170
-15 731 757
+16 390 22
-16 42 648
+17 121 0
-17 142 836
+18 112 907
-18 917 99
+19 528 215
-19 620 522
+20 35 460
-20 645 163
+21 833 588
-21 626 359
+22 589 971
-22 599 993
+23 554 837
-23 285 475
+24 902 365
-24 669 248
+25 814 612
-25 260 308
+26 524 393
-26 4 917
+27 992 394
-27 16 114
+28 435 156
-28 762 488
+29 403 587
-29 69 381
+30 11 882
-30 8 508
+31 42 238
-31 338 556
+32 697 688
-32 22 16
+33 305 229
-33 874 658
+34 654 766
-34 578 627
+35 705 31
-35 761 12
+36 794 98
-36 10 6
+37 715 109
-37 534 882
+38 482 240
-38 905 705
+39 910 898
-39 780 934
+40 80 767
-40 963 834
+41 512 60
-41 861 59
+42 548 842
-42 535 159
+43 117 158
-43 421 8
+44 702 134
-44 517 878
+45 267 14
-45 9 98
+46 655 885
-46 515 388
+47 407 20
-47 510 573
+48 1 584
-48 576 98
+49 397 23
-49 402 219
+50 355 211
-50 336 718
+51 482 499
-51 163 951
+52 972 206
-52 731 64
+53 175 174
-53 409 644
+54 723 469
-54 881 213
+55 450 208
-55 663 984
+56 846 85
-56 23 642
+57 452 724
-57 755 887
+58 336 877
-58 309 201
+59 171 880
-59 948 172
+60 41 581
-60 200 743
+61 76 101
-61 490 856
+62 194 365
-62 19 164
+63 387 462
-63 336 586
+64 190 275
-64 524 986
+65 237 14
-65 569 258
+66 149 529
-66 226 728
+67 954 746
-67 585 593
+68 32 141
-68 374 207
+69 150 572
-69 726 523
+70 87 434
-70 457 889
+71 134 491
-71 858 445
+72 152 185
-72 951 421
+73 184 66
-73 921 79
+74 510 557
-74 235 736
+75 61 680
-75 843 832
+76 604 122
-76 588 767
+77 466 273
-77 481 363
+78 486 996
-78 772 662
+79 363 2
-79 122 93
+80 32 94
-80 630 777
+81 33 811
-81 298 96
PRECEDENCE_SECTION
+0 -0
+1 -1
+2 -2
+3 -3
+4 -4
+5 -5
+6 -6
+7 -7
+8 -8
+9 -9
+10 -10
+11 -11
+12 -12
+13 -13
+14 -14
+15 -15
+16 -16
+17 -17
+18 -18
+19 -19
+20 -20
+21 -21
+22 -22
+23 -23
+24 -24
+25 -25
+26 -26
+27 -27
+28 -28
+29 -29
+30 -30
+31 -31
+32 -32
+33 -33
+34 -34
+35 -35
+36 -36
+37 -37
+38 -38
+39 -39
+40 -40
+41 -41
+42 -42
+43 -43
+44 -44
+45 -45
+46 -46
+47 -47
+48 -48
+49 -49
+50 -50
+51 -51
+52 -52
+53 -53
+54 -54
+55 -55
+56 -56
+57 -57
+58 -58
+59 -59
+60 -60
+61 -61
+62 -62
+63 -63
+64 -64
+65 -65
+66 -66
+67 -67
+68 -68
+69 -69
+70 -70
+71 -71
+72 -72
+73 -73
+74 -74
+75 -75
+76 -76
+77 -77
+78 -78
+79 -79
+80 -80
+81 -81
EOF
